unsat
(:SPACER-inductive-gen                14
 :SPACER-inductive-gen-weaken-fail    21
 :SPACER-inductive-level              2
 :SPACER-max-depth                    5
 :SPACER-max-query-lvl                5
 :SPACER-num-active-lemmas            9
 :SPACER-num-ctp-blocked              4
 :SPACER-num-invariants               8
 :SPACER-num-is_invariant             27
 :SPACER-num-lemmas                   20
 :SPACER-num-pobs                     8
 :SPACER-num-propagations             12
 :SPACER-num-queries                  14
 :added-eqs                           1384
 :arith-assert-diseq                  168
 :arith-assert-lower                  1334
 :arith-assert-upper                  1434
 :arith-bound-prop                    188
 :arith-conflicts                     42
 :arith-eq-adapter                    248
 :arith-fixed-eqs                     216
 :arith-num-rows                      36
 :arith-offset-eqs                    16
 :arith-pivots                        402
 :arith-row-summations                2030
 :arith-tableau-max-columns           76
 :arith-tableau-max-rows              36
 :conflicts                           242
 :decisions                           1456
 :del-clause                          328
 :final-checks                        80
 :iuc_solver.num_proxies              37
 :max-memory                          31.23
 :memory                              30.66
 :minimized-lits                      24
 :mk-bool-var                         1108
 :mk-clause                           922
 :num-allocs                          6640222
 :num-checks                          214
 :pool_solver.checks                  107
 :pool_solver.checks.sat              37
 :pool_solver.checks.undef            3
 :propagations                        7760
 :rlimit-count                        55414
 :time                                0.06
 :time.iuc_solver.get_iuc             0.01
 :time.iuc_solver.get_iuc.hyp_reduce1 0.00
 :time.iuc_solver.get_iuc.hyp_reduce2 0.00
 :time.iuc_solver.get_iuc.learn_core  0.00
 :time.pool_solver.proof              0.00
 :time.pool_solver.smt.total          0.02
 :time.pool_solver.smt.total.sat      0.01
 :time.spacer.init_rules              0.00
 :time.spacer.mbp                     0.00
 :time.spacer.solve                   0.05
 :time.spacer.solve.propagate         0.01
 :time.spacer.solve.reach             0.04
 :time.spacer.solve.reach.children    0.00
 :time.spacer.solve.reach.cluster     0.00
 :time.spacer.solve.reach.gen.ind     0.01)
(:max-memory   31.23
 :memory       30.66
 :num-allocs   6640222
 :rlimit-count 55414
 :time         0.06
 :total-time   0.08)
